(set-info :smt-lib-version 2.6)
(set-logic QF_LIA)
(set-info :category "industrial")
(set-info :status sat)
(declare-fun x0 () Int)
(declare-fun x1 () Int)
(declare-fun x10 () Int)
(declare-fun x11 () Int)
(declare-fun x12 () Int)
(declare-fun x13 () Int)
(declare-fun x14 () Int)
(declare-fun x15 () Int)
(declare-fun x16 () Int)
(declare-fun x17 () Int)
(declare-fun x18 () Int)
(declare-fun x19 () Int)
(declare-fun x2 () Int)
(declare-fun x20 () Int)
(declare-fun x21 () Int)
(declare-fun x22 () Int)
(declare-fun x23 () Int)
(declare-fun x24 () Int)
(declare-fun x3 () Int)
(declare-fun x4 () Int)
(declare-fun x5 () Int)
(declare-fun x6 () Int)
(declare-fun x7 () Int)
(declare-fun x8 () Int)
(declare-fun x9 () Int)
(assert (let ((?v_1 (* 0 x10)) (?v_68 (* 1 x11)) (?v_15 (* 1 x12)) (?v_16 (* 0 x15)) (?v_2 (* 0 x18)) (?v_28 (* 1 x19)) (?v_12 (* 0 x4)) (?v_6 (* 0 x5)) (?v_24 (* 0 x7)) (?v_7 (* 1 x20)) (?v_3 (* 0 x21)) (?v_4 (* 1 x22)) (?v_18 (* 1 x6)) (?v_23 (* 1 x9)) (?v_5 (* 0 x14)) (?v_21 (* 0 x16)) (?v_49 (* 0 x2)) (?v_11 (* 0 x20)) (?v_40 (* 0 x6)) (?v_35 (* 1 x15)) (?v_72 (* 0 x12)) (?v_47 (* 1 x17)) (?v_39 (* 1 x24)) (?v_34 (* 0 x8)) (?v_67 (* 0 x1)) (?v_27 (* 1 x16)) (?v_17 (* 0 x24)) (?v_31 (* 1 x3)) (?v_19 (* 0 x9)) (?v_37 (* 0 x13)) (?v_53 (* 1 x10)) (?v_22 (* 0 x17)) (?v_66 (* 0 x23)) (?v_29 (* 0 x22)) (?v_30 (* 1 x18)) (?v_59 (* 1 x7)) (?v_44 (* 0 x0)) (?v_50 (* 0 x3)) (?v_69 (* 1 x5)) (?v_36 (* 1 x2)) (?v_54 (* 1 x13)) (?v_38 (* 0 x19)) (?v_43 (* 1 x21)) (?v_58 (* 1 x23)) (?v_62 (* 1 x4)) (?v_52 (* 0 x11)) (?v_64 (* 1 x0)) (?v_79 (* 2 x9)) (?v_75 (* 1 x14)) (?v_83 (* 1 x1)) (?v_76 (* 2 x8)) (?v_78 (* 2 x13)) (?v_80 (* 1 x8))) (let ((?v_84 (+ ?v_34 ?v_83)) (?v_0 (* (- 2) x1)) (?v_10 (* (- 1) x14)) (?v_73 (* (- 2) x23)) (?v_74 (* (- 1) x3)) (?v_8 (* (- 1) x11)) (?v_9 (* (- 1) x12)) (?v_25 (* (- 1) x8)) (?v_85 (* (- 2) x7)) (?v_20 (* (- 1) x1)) (?v_41 (* (- 1) x16)) (?v_32 (* (- 1) x22)) (?v_13 (* (- 1) x0)) (?v_33 (* (- 1) x5)) (?v_14 (* (- 1) x7)) (?v_81 (* (- 2) x5)) (?v_42 (* (- 1) x19)) (?v_56 (* (- 1) x20)) (?v_26 (* (- 1) x10)) (?v_61 (* (- 1) x23)) (?v_60 (* (- 1) x21)) (?v_48 (* (- 1) x18)) (?v_65 (* (- 1) x24)) (?v_70 (* (- 1) x6)) (?v_63 (* (- 1) x17)) (?v_45 (* (- 1) x9)) (?v_51 (* (- 2) x14)) (?v_46 (* (- 1) x15)) (?v_55 (* (- 1) x2)) (?v_57 (* (- 1) x4))) (let ((?v_71 (+ ?v_25 ?v_67)) (?v_82 (* (- 2) x9)) (?v_77 (* (- 1) x13))) (and (<= (+ ?v_0 (+ ?v_10 (+ ?v_73 (+ ?v_74 (+ ?v_1 (+ ?v_68 (+ ?v_15 (+ ?v_16 (+ ?v_2 (+ ?v_28 (+ ?v_12 (+ ?v_6 (+ ?v_24 (+ ?v_7 (+ ?v_3 (+ ?v_4 (+ ?v_18 ?v_23))))))))))))))))) (- 1)) (<= (+ ?v_0 (+ ?v_8 (+ ?v_9 (+ ?v_1 (+ (* 3 x13) (+ ?v_5 (+ ?v_21 (+ ?v_2 (+ ?v_25 (+ ?v_49 (+ ?v_11 (+ ?v_3 (+ ?v_4 (+ ?v_40 ?v_35)))))))))))))) 0) (<= (+ (* (- 2) x15) (+ ?v_85 (+ ?v_20 (+ ?v_41 (+ ?v_32 (+ ?v_72 (+ ?v_5 (+ ?v_6 (+ ?v_47 (+ (* 2 x18) (+ ?v_7 (+ (* 2 x11) (+ ?v_3 (+ ?v_39 ?v_34)))))))))))))) 0) (<= (+ ?v_13 (+ ?v_8 (+ ?v_9 (+ ?v_10 (+ ?v_33 (+ ?v_14 (+ ?v_67 (+ ?v_1 (+ ?v_27 (+ ?v_11 (+ ?v_17 (+ ?v_31 (+ ?v_12 ?v_19))))))))))))) 0) (<= (+ ?v_81 (+ ?v_13 (+ ?v_37 (+ ?v_10 (+ ?v_42 (+ ?v_14 (+ ?v_53 (+ ?v_15 (+ ?v_16 (+ ?v_22 (+ ?v_2 (+ ?v_11 (+ ?v_3 (+ ?v_66 (+ ?v_17 (+ ?v_18 ?v_19)))))))))))))))) 0) (<= (+ ?v_13 (+ ?v_20 (+ ?v_5 (+ ?v_21 (+ ?v_22 (+ ?v_29 (+ ?v_12 (+ ?v_6 (+ ?v_15 (+ ?v_30 (+ ?v_56 (+ (* 2 x24) (+ ?v_18 (+ ?v_59 ?v_23)))))))))))))) 1) (<= (+ ?v_44 (+ ?v_20 (+ ?v_26 (+ ?v_9 (+ ?v_5 (+ (* 2 x16) (+ ?v_61 (+ ?v_50 (+ ?v_69 (+ ?v_24 (+ ?v_18 (+ ?v_25 ?v_19)))))))))))) 0) (<= (+ (* (- 3) x12) (+ ?v_20 (+ ?v_26 (+ ?v_5 (+ ?v_60 (+ ?v_25 (+ ?v_16 (+ ?v_27 (+ ?v_28 (+ ?v_29 (+ ?v_24 (+ ?v_30 (+ ?v_36 (+ ?v_31 (* 2 x23))))))))))))))) 0) (<= (+ ?v_20 (+ ?v_26 (+ ?v_9 (+ ?v_54 (+ ?v_10 (+ ?v_27 (+ ?v_48 (+ ?v_38 (+ ?v_32 (+ ?v_65 (+ ?v_33 (+ ?v_70 (+ ?v_34 (+ ?v_35 (+ ?v_36 ?v_43))))))))))))))) 1) (<= (+ ?v_13 (+ (* (- 3) x8) (+ ?v_20 (+ ?v_37 (+ ?v_33 (+ ?v_5 (+ ?v_38 (+ ?v_30 (+ ?v_11 (+ ?v_58 (+ ?v_39 (+ ?v_62 (+ ?v_40 (+ ?v_19 ?v_35)))))))))))))) 0) (<= (+ ?v_13 (+ ?v_20 (+ ?v_37 (+ ?v_41 (+ ?v_63 (+ ?v_42 (+ ?v_2 (+ ?v_11 (+ ?v_39 (+ ?v_31 (+ ?v_12 (+ (* 2 x5) (+ ?v_40 (+ ?v_45 (+ ?v_43 ?v_34))))))))))))))) 0) (<= (+ ?v_51 (+ ?v_44 (+ ?v_20 (+ ?v_1 (+ ?v_52 (+ ?v_46 (+ ?v_42 (+ ?v_2 (+ ?v_55 (+ ?v_17 (+ ?v_31 (+ ?v_57 (+ ?v_6 (+ ?v_14 (+ ?v_40 (+ ?v_45 ?v_3)))))))))))))))) 0) (<= (+ ?v_44 (+ ?v_20 (+ ?v_8 (+ ?v_46 (+ ?v_47 (+ ?v_48 (+ ?v_33 (+ ?v_28 (+ ?v_49 (+ ?v_17 (+ ?v_50 (+ ?v_12 (+ ?v_7 ?v_18))))))))))))) 1) (<= (+ ?v_51 (+ ?v_64 (+ ?v_20 (+ ?v_52 (+ ?v_53 (+ ?v_54 (+ ?v_27 (+ ?v_47 (+ ?v_55 (+ ?v_56 (+ ?v_57 (+ ?v_33 (+ ?v_29 (+ ?v_58 (+ ?v_59 (+ ?v_25 ?v_79)))))))))))))))) 0) (<= (+ ?v_20 (+ ?v_37 (+ ?v_2 (+ ?v_53 (+ ?v_15 (+ ?v_27 (+ ?v_60 (+ ?v_61 (+ ?v_17 (+ ?v_50 (+ ?v_24 (+ ?v_62 (+ ?v_45 ?v_34))))))))))))) 1) (<= (+ ?v_26 (+ ?v_8 (+ ?v_9 (+ ?v_54 (+ ?v_5 (+ ?v_63 (+ ?v_48 (+ ?v_38 (+ ?v_50 (+ ?v_12 (+ ?v_6 (+ ?v_58 (+ ?v_59 ?v_45))))))))))))) 0) (<= (+ ?v_1 (+ ?v_54 (+ ?v_5 (+ ?v_64 (+ ?v_46 (+ ?v_65 (+ ?v_21 (+ ?v_22 (+ ?v_2 (+ ?v_3 (+ ?v_29 (+ ?v_66 (+ ?v_50 (+ ?v_6 (+ ?v_62 ?v_71))))))))))))))) 0) (<= (+ ?v_44 (+ ?v_46 (+ ?v_57 (+ ?v_67 (+ ?v_1 (+ ?v_37 (+ ?v_75 (+ ?v_22 (+ ?v_38 (+ ?v_66 (+ ?v_50 (+ ?v_24 (+ ?v_68 (+ ?v_49 (+ ?v_7 ?v_69))))))))))))))) 1) (<= (+ ?v_13 (+ ?v_8 (+ ?v_1 (+ (* (- 2) x2) (+ ?v_46 (+ ?v_63 (+ ?v_42 (+ ?v_21 (+ ?v_14 (+ ?v_3 (+ ?v_12 (+ ?v_4 (+ ?v_34 (* 2 x1)))))))))))))) (- 1)) (<= (+ ?v_8 (+ ?v_9 (+ ?v_1 (+ ?v_54 (+ ?v_46 (+ ?v_22 (+ ?v_27 (+ ?v_28 (+ ?v_11 (+ ?v_39 (+ ?v_50 (+ ?v_12 (+ ?v_4 (+ ?v_69 (+ ?v_25 ?v_83))))))))))))))) 0) (<= (+ ?v_82 (+ ?v_13 (+ ?v_37 (+ ?v_5 (+ ?v_42 (+ ?v_29 (+ ?v_61 (+ ?v_17 (+ ?v_33 (+ ?v_12 (+ ?v_70 (+ ?v_52 (+ ?v_53 (+ ?v_15 (+ ?v_55 (+ ?v_7 (+ ?v_31 ?v_71))))))))))))))))) 0) (<= (+ ?v_10 (+ ?v_44 (+ ?v_52 (+ ?v_72 (+ ?v_37 (+ ?v_53 (+ ?v_28 (+ ?v_55 (+ ?v_11 (+ ?v_17 (+ ?v_50 (+ ?v_12 (+ ?v_43 (+ ?v_4 (+ ?v_69 (+ ?v_25 (+ ?v_16 ?v_23))))))))))))))))) 1) (<= (+ ?v_63 (+ ?v_38 (+ ?v_73 (+ ?v_1 (+ ?v_68 (+ ?v_15 (+ ?v_27 (+ ?v_30 (+ (* (- 2) x21) (+ ?v_55 (+ ?v_57 (+ ?v_16 (+ ?v_7 (+ ?v_31 (* 2 x7))))))))))))))) 0) (<= (+ ?v_77 (+ ?v_65 (+ ?v_74 (+ ?v_57 (+ ?v_52 (+ ?v_22 (+ ?v_2 (+ ?v_15 (+ ?v_75 (+ ?v_28 (+ ?v_25 (+ ?v_49 (+ ?v_7 (+ ?v_3 (+ ?v_6 (+ ?v_58 (+ ?v_40 (+ ?v_24 ?v_23)))))))))))))))))) 1) (<= (+ (* (- 2) x20) (+ ?v_8 (+ ?v_9 (+ ?v_61 (+ ?v_44 (+ ?v_37 (+ ?v_22 (+ ?v_2 (+ ?v_28 (+ ?v_29 (+ ?v_39 (+ ?v_62 (+ ?v_69 (+ ?v_19 ?v_76)))))))))))))) 0) (<= (+ ?v_78 (+ ?v_75 (+ ?v_22 (+ ?v_2 (+ (* 2 x19) (+ ?v_61 (+ ?v_17 (+ ?v_12 (+ ?v_69 (+ ?v_70 (+ ?v_44 (+ ?v_24 (+ ?v_53 (+ ?v_15 (* (- 2) x8))))))))))))))) (- 1)) (<= (+ (* (- 2) x17) (+ ?v_9 (+ ?v_56 (+ ?v_57 (+ ?v_33 (+ ?v_44 (+ ?v_67 (+ ?v_5 (+ ?v_21 (+ ?v_38 (+ ?v_53 (+ ?v_3 (+ ?v_4 (+ ?v_66 (+ ?v_17 (+ ?v_59 ?v_76)))))))))))))))) 0) (<= (+ ?v_10 (+ ?v_48 (+ ?v_56 (+ ?v_70 (+ ?v_44 (+ ?v_67 (+ ?v_15 (+ ?v_16 (+ ?v_21 (+ ?v_22 (+ ?v_38 (+ ?v_29 (+ ?v_66 (+ ?v_17 (+ ?v_36 (* 2 x21)))))))))))))))) 0) (<= (+ ?v_77 (+ ?v_70 (+ ?v_44 (+ ?v_67 (+ ?v_75 (+ ?v_21 (+ ?v_2 (+ ?v_49 (+ ?v_3 (+ ?v_29 (+ ?v_17 (+ ?v_6 (+ ?v_31 (+ ?v_62 ?v_76)))))))))))))) 1) (<= (+ ?v_41 (+ ?v_32 (+ ?v_33 (+ ?v_70 (+ ?v_67 (+ ?v_72 (+ ?v_78 (+ ?v_22 (+ ?v_24 (+ ?v_53 (+ ?v_35 (+ ?v_80 ?v_79)))))))))))) (- 1)) (<= (+ ?v_77 (+ ?v_61 (+ ?v_65 (+ ?v_44 (+ ?v_67 (+ ?v_52 (+ ?v_22 (+ ?v_2 (+ ?v_38 (+ ?v_6 (+ ?v_15 (+ ?v_19 (+ ?v_35 (+ ?v_7 (+ ?v_80 (* 2 x2)))))))))))))))) 1) (<= (+ ?v_55 (+ ?v_61 (+ ?v_67 (+ ?v_1 (+ ?v_52 (+ ?v_15 (+ ?v_16 (+ ?v_22 (+ ?v_38 (+ ?v_11 (+ ?v_29 (+ ?v_17 (+ ?v_69 (+ ?v_40 ?v_59)))))))))))))) 0) (<= (+ ?v_81 (+ ?v_13 (+ ?v_55 (+ ?v_57 (+ ?v_14 (+ ?v_67 (+ ?v_52 (+ ?v_72 (+ ?v_16 (+ ?v_21 (+ ?v_30 (+ ?v_3 (+ ?v_4 (+ ?v_39 ?v_19)))))))))))))) 0) (<= (+ ?v_26 (+ ?v_63 (+ ?v_55 (+ ?v_33 (+ ?v_67 (+ ?v_52 (+ ?v_38 (+ ?v_29 (+ ?v_66 (+ ?v_31 (+ ?v_12 (+ ?v_18 (+ ?v_59 (+ ?v_34 (* 2 x15))))))))))))))) 0) (<= (+ (* (- 2) x12) (+ ?v_77 (+ ?v_65 (+ ?v_70 (+ ?v_16 (+ ?v_22 (+ ?v_38 (+ ?v_27 (+ ?v_2 (+ ?v_29 (+ ?v_12 (+ ?v_58 (+ ?v_69 (+ ?v_34 ?v_19)))))))))))))) 0) (<= (+ ?v_74 (+ ?v_82 (+ ?v_1 (+ ?v_5 (+ ?v_16 (+ ?v_22 (+ ?v_38 (+ ?v_30 (+ ?v_49 (+ ?v_29 (+ ?v_12 (+ ?v_69 (+ ?v_40 (+ ?v_24 ?v_84)))))))))))))) 0) (<= (+ ?v_77 (+ ?v_74 (+ ?v_53 (+ ?v_75 (+ ?v_16 (+ ?v_38 (+ ?v_27 (+ ?v_47 (+ ?v_49 (+ ?v_11 (+ ?v_66 (+ ?v_17 (+ ?v_83 (+ ?v_69 (+ (* 2 x22) (+ (* 2 x4) ?v_23)))))))))))))))) 0) (<= (+ ?v_8 (+ ?v_37 (+ ?v_5 (+ ?v_41 (+ ?v_63 (+ ?v_42 (+ ?v_14 (+ ?v_16 (+ ?v_17 (+ ?v_6 (+ ?v_58 (+ ?v_31 (+ ?v_40 ?v_84))))))))))))) 1) (<= (+ ?v_13 (+ ?v_15 (+ ?v_56 (+ ?v_1 (+ ?v_16 (+ ?v_21 (+ ?v_28 (+ ?v_49 (+ ?v_3 (+ ?v_4 (+ ?v_66 ?v_24))))))))))) 1) (<= (+ ?v_85 (+ ?v_13 (+ ?v_1 (+ ?v_72 (+ ?v_5 (+ ?v_68 (+ ?v_25 (+ ?v_16 (+ ?v_27 (+ ?v_28 (+ ?v_11 (+ ?v_3 (+ ?v_12 (+ ?v_6 (+ ?v_36 (+ ?v_4 (+ ?v_39 ?v_18))))))))))))))))) (- 1)) (<= (+ ?v_37 (+ ?v_5 (+ ?v_63 (+ ?v_57 (+ ?v_2 (+ ?v_64 (+ ?v_53 (+ ?v_15 (+ ?v_49 (+ ?v_11 (+ ?v_3 (+ ?v_17 (+ ?v_4 (+ ?v_40 ?v_24)))))))))))))) 0) (<= (+ ?v_9 (+ ?v_37 (+ ?v_10 (+ ?v_63 (+ ?v_21 (+ ?v_38 (+ ?v_73 (+ (* (- 2) x4) (+ ?v_14 (+ ?v_11 (+ ?v_40 (+ ?v_64 (+ ?v_30 ?v_76))))))))))))) (- 1)) (<= (+ ?v_9 (+ ?v_1 (+ ?v_21 (+ ?v_25 (+ ?v_49 (+ ?v_3 (+ ?v_29 (+ ?v_50 (+ ?v_40 (+ ?v_24 (+ ?v_83 (+ ?v_35 (+ ?v_47 (+ ?v_58 (+ ?v_39 (+ ?v_62 ?v_23)))))))))))))))) (- 1)) (<= (+ ?v_77 (+ ?v_74 (+ ?v_33 (+ ?v_72 (+ ?v_2 (+ ?v_38 (+ ?v_49 (+ ?v_3 (+ ?v_12 (+ ?v_24 (+ ?v_83 (+ ?v_35 (+ ?v_47 (+ ?v_4 (+ ?v_58 ?v_80))))))))))))))) 0) (<= (+ ?v_9 (+ ?v_27 (+ ?v_48 (+ ?v_29 (+ ?v_73 (+ ?v_74 (+ ?v_11 (+ ?v_17 (+ ?v_12 (+ ?v_45 (+ ?v_3 (+ ?v_83 ?v_80)))))))))))) 0))))))
(check-sat)
(exit)
